NAME 
OBJSENSE MAX
ROWS
 N  OBJ
 L  packing[0]
 L  packing[1]
 L  packing[2]
 L  packing[3]
 L  packing[4]
 L  packing[5]
 L  packing[6]
 L  packing[7]
 L  packing[8]
 L  packing[9]
 L  packing[10]
 L  packing[11]
 L  packing[12]
 L  packing[13]
 L  packing[14]
 L  packing[15]
 L  packing[16]
 L  packing[17]
 L  packing[18]
 L  packing[19]
 L  packing[20]
 L  packing[21]
 L  packing[22]
 L  packing[23]
 L  packing[24]
 L  packing[25]
 L  packing[26]
 L  packing[27]
 L  packing[28]
 L  packing[29]
 L  packing[30]
 L  packing[31]
 L  packing[32]
 L  packing[33]
 L  packing[34]
 L  packing[35]
 L  packing[36]
 L  packing[37]
 L  packing[38]
 L  packing[39]
 L  packing[40]
 L  packing[41]
 L  packing[42]
 L  packing[43]
 L  packing[44]
 L  packing[45]
 L  packing[46]
 L  packing[47]
 L  packing[48]
 L  packing[49]
 L  R61     
COLUMNS
    MARKER    'MARKER'                 'INTORG'
    x[1]      OBJ       97
    x[1]      packing[0]  97
    x[1]      packing[1]  82
    x[1]      packing[2]  133
    x[1]      packing[3]  160
    x[1]      packing[5]  68
    x[1]      packing[6]  126
    x[1]      packing[7]  147
    x[1]      packing[8]  191
    x[1]      packing[9]  127
    x[1]      packing[10]  64
    x[1]      packing[11]  18
    x[1]      packing[12]  79
    x[1]      packing[13]  143
    x[1]      packing[14]  109
    x[1]      packing[15]  176
    x[1]      packing[16]  91
    x[1]      packing[17]  65
    x[1]      packing[18]  156
    x[1]      packing[19]  77
    x[1]      packing[20]  156
    x[1]      packing[21]  140
    x[1]      packing[22]  37
    x[1]      packing[23]  127
    x[1]      packing[24]  184
    x[1]      packing[25]  9
    x[1]      packing[26]  127
    x[1]      packing[27]  197
    x[1]      packing[28]  153
    x[1]      packing[29]  82
    x[1]      packing[30]  31
    x[1]      packing[31]  40
    x[1]      packing[32]  143
    x[1]      packing[33]  122
    x[1]      packing[34]  47
    x[1]      packing[36]  153
    x[1]      packing[37]  15
    x[1]      packing[38]  135
    x[1]      packing[39]  48
    x[1]      packing[40]  29
    x[1]      packing[41]  167
    x[1]      packing[43]  87
    x[1]      packing[44]  108
    x[1]      packing[45]  148
    x[1]      packing[46]  125
    x[1]      packing[48]  85
    x[1]      packing[49]  153
    x[2]      OBJ       182
    x[2]      packing[1]  126
    x[2]      packing[2]  23
    x[2]      packing[3]  196
    x[2]      packing[4]  148
    x[2]      packing[5]  189
    x[2]      packing[6]  59
    x[2]      packing[7]  96
    x[2]      packing[8]  116
    x[2]      packing[9]  127
    x[2]      packing[10]  194
    x[2]      packing[11]  75
    x[2]      packing[12]  152
    x[2]      packing[13]  4
    x[2]      packing[14]  84
    x[2]      packing[15]  197
    x[2]      packing[16]  116
    x[2]      packing[17]  38
    x[2]      packing[19]  52
    x[2]      packing[20]  17
    x[2]      packing[21]  53
    x[2]      packing[22]  149
    x[2]      packing[23]  9
    x[2]      packing[25]  29
    x[2]      packing[26]  137
    x[2]      packing[28]  164
    x[2]      packing[29]  39
    x[2]      packing[30]  105
    x[2]      packing[32]  4
    x[2]      packing[34]  43
    x[2]      packing[36]  33
    x[2]      packing[37]  78
    x[2]      packing[38]  188
    x[2]      packing[43]  38
    x[2]      packing[45]  137
    x[2]      packing[48]  127
    x[2]      packing[49]  62
    x[2]      R61       1
    x[3]      OBJ       55
    x[3]      packing[0]  7
    x[3]      packing[1]  158
    x[3]      packing[2]  174
    x[3]      packing[3]  24
    x[3]      packing[6]  186
    x[3]      packing[7]  136
    x[3]      packing[8]  76
    x[3]      packing[9]  53
    x[3]      packing[12]  35
    x[3]      packing[14]  64
    x[3]      packing[15]  29
    x[3]      packing[16]  31
    x[3]      packing[17]  56
    x[3]      packing[19]  119
    x[3]      packing[20]  181
    x[3]      packing[21]  17
    x[3]      packing[23]  129
    x[3]      packing[24]  72
    x[3]      packing[25]  73
    x[3]      packing[26]  130
    x[3]      packing[27]  7
    x[3]      packing[29]  19
    x[3]      packing[30]  109
    x[3]      packing[31]  29
    x[3]      packing[32]  174
    x[3]      packing[33]  108
    x[3]      packing[34]  30
    x[3]      packing[36]  106
    x[3]      packing[37]  94
    x[3]      packing[39]  82
    x[3]      packing[40]  43
    x[3]      packing[41]  105
    x[3]      packing[42]  77
    x[3]      packing[44]  35
    x[3]      packing[45]  79
    x[3]      packing[46]  197
    x[3]      R61       1
    x[4]      OBJ       120
    x[4]      packing[0]  195
    x[4]      packing[1]  99
    x[4]      packing[2]  1
    x[4]      packing[4]  164
    x[4]      packing[5]  103
    x[4]      packing[6]  144
    x[4]      packing[7]  168
    x[4]      packing[8]  168
    x[4]      packing[9]  56
    x[4]      packing[10]  100
    x[4]      packing[11]  144
    x[4]      packing[14]  24
    x[4]      packing[15]  111
    x[4]      packing[16]  138
    x[4]      packing[17]  17
    x[4]      packing[18]  71
    x[4]      packing[20]  48
    x[4]      packing[21]  1
    x[4]      packing[22]  54
    x[4]      packing[23]  69
    x[4]      packing[25]  122
    x[4]      packing[28]  66
    x[4]      packing[29]  54
    x[4]      packing[31]  183
    x[4]      packing[32]  176
    x[4]      packing[33]  192
    x[4]      packing[34]  111
    x[4]      packing[35]  199
    x[4]      packing[37]  165
    x[4]      packing[38]  56
    x[4]      packing[39]  73
    x[4]      packing[41]  183
    x[4]      packing[43]  175
    x[4]      packing[44]  195
    x[4]      packing[46]  172
    x[4]      packing[47]  169
    x[4]      packing[48]  112
    x[4]      packing[49]  117
    x[5]      OBJ       110
    x[5]      packing[0]  52
    x[5]      packing[1]  149
    x[5]      packing[4]  80
    x[5]      packing[5]  138
    x[5]      packing[6]  137
    x[5]      packing[8]  39
    x[5]      packing[9]  174
    x[5]      packing[11]  164
    x[5]      packing[12]  99
    x[5]      packing[16]  156
    x[5]      packing[17]  99
    x[5]      packing[18]  83
    x[5]      packing[19]  184
    x[5]      packing[23]  136
    x[5]      packing[24]  41
    x[5]      packing[25]  108
    x[5]      packing[27]  7
    x[5]      packing[28]  183
    x[5]      packing[29]  160
    x[5]      packing[31]  28
    x[5]      packing[32]  167
    x[5]      packing[33]  16
    x[5]      packing[34]  138
    x[5]      packing[35]  125
    x[5]      packing[36]  182
    x[5]      packing[37]  114
    x[5]      packing[40]  187
    x[5]      packing[41]  104
    x[5]      packing[42]  2
    x[5]      packing[43]  164
    x[5]      packing[44]  44
    x[5]      packing[45]  26
    x[5]      packing[46]  29
    x[5]      packing[48]  26
    x[5]      packing[49]  43
    x[6]      OBJ       86
    x[6]      packing[0]  150
    x[6]      packing[1]  179
    x[6]      packing[2]  170
    x[6]      packing[3]  158
    x[6]      packing[5]  104
    x[6]      packing[6]  124
    x[6]      packing[8]  2
    x[6]      packing[9]  41
    x[6]      packing[10]  8
    x[6]      packing[13]  58
    x[6]      packing[15]  3
    x[6]      packing[16]  114
    x[6]      packing[17]  147
    x[6]      packing[18]  51
    x[6]      packing[20]  156
    x[6]      packing[22]  76
    x[6]      packing[23]  80
    x[6]      packing[25]  121
    x[6]      packing[26]  186
    x[6]      packing[27]  105
    x[6]      packing[28]  91
    x[6]      packing[29]  170
    x[6]      packing[30]  146
    x[6]      packing[31]  134
    x[6]      packing[32]  36
    x[6]      packing[34]  132
    x[6]      packing[35]  47
    x[6]      packing[36]  42
    x[6]      packing[38]  19
    x[6]      packing[39]  116
    x[6]      packing[40]  62
    x[6]      packing[41]  148
    x[6]      packing[43]  186
    x[6]      packing[44]  192
    x[6]      packing[45]  49
    x[6]      packing[46]  183
    x[6]      packing[48]  181
    x[6]      packing[49]  175
    x[7]      OBJ       199
    x[7]      packing[0]  158
    x[7]      packing[2]  85
    x[7]      packing[5]  146
    x[7]      packing[6]  40
    x[7]      packing[7]  91
    x[7]      packing[8]  175
    x[7]      packing[9]  62
    x[7]      packing[10]  191
    x[7]      packing[11]  183
    x[7]      packing[12]  93
    x[7]      packing[14]  93
    x[7]      packing[15]  100
    x[7]      packing[16]  191
    x[7]      packing[17]  70
    x[7]      packing[18]  54
    x[7]      packing[19]  32
    x[7]      packing[22]  177
    x[7]      packing[23]  173
    x[7]      packing[25]  14
    x[7]      packing[26]  81
    x[7]      packing[29]  70
    x[7]      packing[30]  98
    x[7]      packing[32]  199
    x[7]      packing[33]  159
    x[7]      packing[34]  51
    x[7]      packing[36]  59
    x[7]      packing[39]  79
    x[7]      packing[40]  81
    x[7]      packing[44]  83
    x[7]      packing[45]  23
    x[7]      packing[46]  172
    x[7]      packing[47]  89
    x[7]      packing[49]  198
    x[7]      R61       1
    x[8]      OBJ       150
    x[8]      packing[0]  122
    x[8]      packing[1]  145
    x[8]      packing[3]  79
    x[8]      packing[4]  164
    x[8]      packing[5]  150
    x[8]      packing[6]  58
    x[8]      packing[8]  190
    x[8]      packing[9]  66
    x[8]      packing[10]  26
    x[8]      packing[11]  195
    x[8]      packing[12]  36
    x[8]      packing[13]  170
    x[8]      packing[14]  104
    x[8]      packing[16]  8
    x[8]      packing[17]  55
    x[8]      packing[18]  5
    x[8]      packing[19]  4
    x[8]      packing[20]  56
    x[8]      packing[21]  47
    x[8]      packing[22]  139
    x[8]      packing[23]  72
    x[8]      packing[25]  93
    x[8]      packing[26]  169
    x[8]      packing[27]  4
    x[8]      packing[29]  199
    x[8]      packing[30]  73
    x[8]      packing[31]  33
    x[8]      packing[32]  44
    x[8]      packing[33]  188
    x[8]      packing[34]  131
    x[8]      packing[35]  62
    x[8]      packing[36]  39
    x[8]      packing[37]  60
    x[8]      packing[41]  131
    x[8]      packing[43]  19
    x[8]      packing[44]  57
    x[8]      packing[45]  158
    x[8]      packing[48]  27
    x[8]      R61       1
    x[9]      OBJ       187
    x[9]      packing[1]  97
    x[9]      packing[4]  103
    x[9]      packing[5]  118
    x[9]      packing[6]  102
    x[9]      packing[7]  135
    x[9]      packing[8]  188
    x[9]      packing[10]  47
    x[9]      packing[12]  47
    x[9]      packing[13]  184
    x[9]      packing[14]  75
    x[9]      packing[16]  71
    x[9]      packing[18]  35
    x[9]      packing[20]  198
    x[9]      packing[22]  196
    x[9]      packing[23]  41
    x[9]      packing[24]  124
    x[9]      packing[26]  43
    x[9]      packing[27]  199
    x[9]      packing[28]  190
    x[9]      packing[29]  152
    x[9]      packing[30]  131
    x[9]      packing[31]  112
    x[9]      packing[32]  105
    x[9]      packing[33]  154
    x[9]      packing[34]  142
    x[9]      packing[35]  199
    x[9]      packing[37]  191
    x[9]      packing[38]  145
    x[9]      packing[40]  85
    x[9]      packing[42]  4
    x[9]      packing[43]  101
    x[9]      packing[45]  195
    x[9]      packing[46]  178
    x[9]      packing[47]  154
    x[9]      packing[48]  68
    x[10]     OBJ       187
    x[10]     packing[0]  179
    x[10]     packing[1]  50
    x[10]     packing[2]  34
    x[10]     packing[3]  136
    x[10]     packing[4]  47
    x[10]     packing[5]  155
    x[10]     packing[7]  20
    x[10]     packing[10]  172
    x[10]     packing[11]  80
    x[10]     packing[12]  104
    x[10]     packing[16]  132
    x[10]     packing[17]  106
    x[10]     packing[18]  95
    x[10]     packing[19]  65
    x[10]     packing[21]  100
    x[10]     packing[22]  131
    x[10]     packing[24]  55
    x[10]     packing[27]  65
    x[10]     packing[28]  172
    x[10]     packing[29]  59
    x[10]     packing[30]  198
    x[10]     packing[32]  106
    x[10]     packing[33]  68
    x[10]     packing[34]  83
    x[10]     packing[35]  185
    x[10]     packing[36]  32
    x[10]     packing[37]  123
    x[10]     packing[38]  108
    x[10]     packing[39]  138
    x[10]     packing[40]  17
    x[10]     packing[43]  140
    x[10]     packing[44]  128
    x[10]     packing[45]  97
    x[10]     packing[46]  125
    x[10]     packing[47]  123
    x[10]     packing[48]  123
    x[10]     R61       1
    x[11]     OBJ       57
    x[11]     packing[0]  103
    x[11]     packing[1]  117
    x[11]     packing[2]  74
    x[11]     packing[3]  32
    x[11]     packing[5]  168
    x[11]     packing[6]  30
    x[11]     packing[7]  101
    x[11]     packing[8]  40
    x[11]     packing[9]  158
    x[11]     packing[10]  189
    x[11]     packing[11]  109
    x[11]     packing[12]  66
    x[11]     packing[13]  140
    x[11]     packing[14]  152
    x[11]     packing[15]  125
    x[11]     packing[16]  127
    x[11]     packing[18]  121
    x[11]     packing[19]  198
    x[11]     packing[20]  84
    x[11]     packing[21]  154
    x[11]     packing[23]  90
    x[11]     packing[25]  186
    x[11]     packing[26]  143
    x[11]     packing[27]  22
    x[11]     packing[28]  126
    x[11]     packing[30]  18
    x[11]     packing[32]  46
    x[11]     packing[35]  112
    x[11]     packing[36]  111
    x[11]     packing[37]  3
    x[11]     packing[38]  30
    x[11]     packing[39]  5
    x[11]     packing[42]  82
    x[11]     packing[43]  174
    x[11]     packing[44]  50
    x[11]     packing[48]  106
    x[11]     packing[49]  192
    x[12]     OBJ       192
    x[12]     packing[0]  14
    x[12]     packing[1]  160
    x[12]     packing[2]  54
    x[12]     packing[4]  98
    x[12]     packing[6]  107
    x[12]     packing[7]  151
    x[12]     packing[8]  108
    x[12]     packing[9]  24
    x[12]     packing[11]  113
    x[12]     packing[12]  50
    x[12]     packing[13]  90
    x[12]     packing[15]  167
    x[12]     packing[16]  44
    x[12]     packing[22]  120
    x[12]     packing[23]  8
    x[12]     packing[24]  34
    x[12]     packing[25]  32
    x[12]     packing[26]  135
    x[12]     packing[29]  20
    x[12]     packing[31]  134
    x[12]     packing[32]  123
    x[12]     packing[33]  195
    x[12]     packing[34]  137
    x[12]     packing[36]  36
    x[12]     packing[37]  1
    x[12]     packing[38]  41
    x[12]     packing[40]  58
    x[12]     packing[41]  30
    x[12]     packing[43]  166
    x[12]     packing[44]  127
    x[12]     packing[46]  100
    x[12]     packing[47]  91
    x[12]     packing[48]  170
    x[12]     packing[49]  96
    x[13]     OBJ       90
    x[13]     packing[0]  161
    x[13]     packing[1]  138
    x[13]     packing[2]  161
    x[13]     packing[4]  32
    x[13]     packing[5]  11
    x[13]     packing[6]  187
    x[13]     packing[7]  113
    x[13]     packing[9]  178
    x[13]     packing[10]  37
    x[13]     packing[11]  190
    x[13]     packing[12]  194
    x[13]     packing[13]  101
    x[13]     packing[14]  154
    x[13]     packing[15]  60
    x[13]     packing[16]  30
    x[13]     packing[17]  52
    x[13]     packing[18]  140
    x[13]     packing[20]  170
    x[13]     packing[21]  113
    x[13]     packing[22]  102
    x[13]     packing[23]  32
    x[13]     packing[24]  166
    x[13]     packing[26]  23
    x[13]     packing[27]  12
    x[13]     packing[28]  164
    x[13]     packing[29]  185
    x[13]     packing[30]  150
    x[13]     packing[31]  8
    x[13]     packing[32]  123
    x[13]     packing[34]  153
    x[13]     packing[35]  71
    x[13]     packing[36]  79
    x[13]     packing[37]  99
    x[13]     packing[38]  43
    x[13]     packing[40]  120
    x[13]     packing[41]  161
    x[13]     packing[42]  89
    x[13]     packing[43]  33
    x[13]     packing[44]  161
    x[13]     packing[45]  63
    x[13]     packing[46]  194
    x[13]     packing[47]  13
    x[13]     packing[48]  13
    x[13]     packing[49]  169
    x[14]     OBJ       58
    x[14]     packing[0]  175
    x[14]     packing[1]  23
    x[14]     packing[2]  167
    x[14]     packing[3]  159
    x[14]     packing[5]  163
    x[14]     packing[6]  157
    x[14]     packing[7]  80
    x[14]     packing[8]  17
    x[14]     packing[9]  85
    x[14]     packing[11]  111
    x[14]     packing[12]  92
    x[14]     packing[13]  148
    x[14]     packing[14]  184
    x[14]     packing[15]  89
    x[14]     packing[17]  167
    x[14]     packing[18]  127
    x[14]     packing[21]  195
    x[14]     packing[22]  192
    x[14]     packing[23]  70
    x[14]     packing[24]  121
    x[14]     packing[25]  158
    x[14]     packing[26]  123
    x[14]     packing[27]  33
    x[14]     packing[29]  70
    x[14]     packing[30]  106
    x[14]     packing[31]  83
    x[14]     packing[34]  149
    x[14]     packing[35]  52
    x[14]     packing[36]  74
    x[14]     packing[37]  53
    x[14]     packing[38]  158
    x[14]     packing[39]  104
    x[14]     packing[40]  35
    x[14]     packing[41]  47
    x[14]     packing[42]  194
    x[14]     packing[44]  24
    x[14]     packing[47]  94
    x[15]     OBJ       30
    x[15]     packing[0]  137
    x[15]     packing[1]  43
    x[15]     packing[2]  153
    x[15]     packing[3]  180
    x[15]     packing[6]  17
    x[15]     packing[7]  125
    x[15]     packing[8]  132
    x[15]     packing[9]  145
    x[15]     packing[10]  121
    x[15]     packing[11]  79
    x[15]     packing[12]  119
    x[15]     packing[14]  38
    x[15]     packing[15]  199
    x[15]     packing[16]  32
    x[15]     packing[17]  162
    x[15]     packing[18]  156
    x[15]     packing[19]  143
    x[15]     packing[21]  125
    x[15]     packing[23]  187
    x[15]     packing[24]  117
    x[15]     packing[25]  155
    x[15]     packing[27]  110
    x[15]     packing[28]  45
    x[15]     packing[29]  78
    x[15]     packing[30]  171
    x[15]     packing[31]  166
    x[15]     packing[32]  199
    x[15]     packing[34]  125
    x[15]     packing[35]  146
    x[15]     packing[36]  84
    x[15]     packing[37]  154
    x[15]     packing[38]  197
    x[15]     packing[39]  90
    x[15]     packing[41]  147
    x[15]     packing[43]  165
    x[15]     packing[44]  134
    x[15]     packing[46]  188
    x[15]     packing[47]  144
    x[15]     packing[48]  62
    x[16]     OBJ       22
    x[16]     packing[1]  186
    x[16]     packing[2]  130
    x[16]     packing[3]  15
    x[16]     packing[6]  127
    x[16]     packing[7]  89
    x[16]     packing[8]  199
    x[16]     packing[9]  156
    x[16]     packing[11]  53
    x[16]     packing[13]  29
    x[16]     packing[15]  102
    x[16]     packing[17]  14
    x[16]     packing[19]  170
    x[16]     packing[20]  194
    x[16]     packing[21]  177
    x[16]     packing[23]  31
    x[16]     packing[24]  199
    x[16]     packing[25]  142
    x[16]     packing[26]  192
    x[16]     packing[28]  126
    x[16]     packing[29]  91
    x[16]     packing[30]  174
    x[16]     packing[31]  74
    x[16]     packing[32]  186
    x[16]     packing[33]  72
    x[16]     packing[35]  170
    x[16]     packing[36]  13
    x[16]     packing[37]  172
    x[16]     packing[40]  139
    x[16]     packing[41]  48
    x[16]     packing[43]  63
    x[16]     packing[44]  35
    x[16]     packing[46]  62
    x[16]     packing[47]  82
    x[16]     packing[48]  2
    x[17]     OBJ       19
    x[17]     packing[0]  123
    x[17]     packing[1]  103
    x[17]     packing[2]  35
    x[17]     packing[3]  187
    x[17]     packing[4]  181
    x[17]     packing[6]  170
    x[17]     packing[7]  171
    x[17]     packing[8]  86
    x[17]     packing[10]  54
    x[17]     packing[12]  139
    x[17]     packing[14]  12
    x[17]     packing[15]  10
    x[17]     packing[16]  59
    x[17]     packing[17]  153
    x[17]     packing[18]  171
    x[17]     packing[19]  102
    x[17]     packing[20]  5
    x[17]     packing[22]  48
    x[17]     packing[23]  62
    x[17]     packing[25]  105
    x[17]     packing[26]  75
    x[17]     packing[27]  140
    x[17]     packing[28]  119
    x[17]     packing[30]  26
    x[17]     packing[31]  123
    x[17]     packing[32]  107
    x[17]     packing[33]  186
    x[17]     packing[34]  150
    x[17]     packing[36]  57
    x[17]     packing[37]  180
    x[17]     packing[38]  178
    x[17]     packing[39]  40
    x[17]     packing[40]  75
    x[17]     packing[44]  73
    x[17]     packing[45]  130
    x[17]     packing[46]  34
    x[17]     packing[47]  112
    x[17]     packing[48]  106
    x[17]     packing[49]  154
    x[18]     OBJ       80
    x[18]     packing[2]  102
    x[18]     packing[4]  90
    x[18]     packing[5]  18
    x[18]     packing[6]  163
    x[18]     packing[7]  73
    x[18]     packing[8]  143
    x[18]     packing[11]  41
    x[18]     packing[13]  16
    x[18]     packing[14]  77
    x[18]     packing[15]  168
    x[18]     packing[17]  57
    x[18]     packing[20]  60
    x[18]     packing[21]  139
    x[18]     packing[22]  8
    x[18]     packing[24]  186
    x[18]     packing[26]  74
    x[18]     packing[28]  166
    x[18]     packing[29]  190
    x[18]     packing[30]  143
    x[18]     packing[31]  65
    x[18]     packing[33]  88
    x[18]     packing[34]  175
    x[18]     packing[35]  14
    x[18]     packing[37]  30
    x[18]     packing[38]  31
    x[18]     packing[39]  153
    x[18]     packing[40]  84
    x[18]     packing[42]  85
    x[18]     packing[43]  166
    x[18]     packing[44]  93
    x[18]     packing[45]  159
    x[18]     packing[46]  161
    x[18]     packing[49]  154
    x[18]     R61       1
    x[19]     OBJ       36
    x[19]     packing[0]  6
    x[19]     packing[1]  21
    x[19]     packing[2]  13
    x[19]     packing[3]  96
    x[19]     packing[4]  96
    x[19]     packing[6]  88
    x[19]     packing[8]  110
    x[19]     packing[9]  81
    x[19]     packing[11]  66
    x[19]     packing[12]  103
    x[19]     packing[13]  115
    x[19]     packing[14]  72
    x[19]     packing[15]  56
    x[19]     packing[17]  74
    x[19]     packing[19]  125
    x[19]     packing[21]  174
    x[19]     packing[22]  133
    x[19]     packing[24]  118
    x[19]     packing[25]  124
    x[19]     packing[27]  137
    x[19]     packing[30]  19
    x[19]     packing[31]  188
    x[19]     packing[32]  183
    x[19]     packing[33]  174
    x[19]     packing[34]  175
    x[19]     packing[35]  61
    x[19]     packing[36]  108
    x[19]     packing[37]  36
    x[19]     packing[38]  118
    x[19]     packing[39]  175
    x[19]     packing[40]  150
    x[19]     packing[41]  196
    x[19]     packing[43]  177
    x[19]     packing[44]  26
    x[19]     packing[45]  119
    x[19]     packing[46]  176
    x[19]     packing[47]  29
    x[19]     packing[48]  97
    x[19]     packing[49]  156
    x[20]     OBJ       151
    x[20]     packing[0]  167
    x[20]     packing[1]  163
    x[20]     packing[5]  62
    x[20]     packing[6]  66
    x[20]     packing[7]  85
    x[20]     packing[8]  167
    x[20]     packing[9]  146
    x[20]     packing[10]  4
    x[20]     packing[11]  178
    x[20]     packing[14]  22
    x[20]     packing[15]  75
    x[20]     packing[16]  52
    x[20]     packing[19]  156
    x[20]     packing[20]  121
    x[20]     packing[21]  185
    x[20]     packing[22]  92
    x[20]     packing[23]  32
    x[20]     packing[24]  7
    x[20]     packing[25]  158
    x[20]     packing[29]  107
    x[20]     packing[30]  12
    x[20]     packing[31]  8
    x[20]     packing[32]  56
    x[20]     packing[33]  38
    x[20]     packing[35]  145
    x[20]     packing[36]  123
    x[20]     packing[37]  99
    x[20]     packing[38]  151
    x[20]     packing[39]  121
    x[20]     packing[42]  47
    x[20]     packing[43]  23
    x[20]     packing[44]  6
    x[20]     packing[45]  171
    x[20]     packing[47]  135
    x[20]     packing[48]  19
    x[20]     packing[49]  69
    x[20]     R61       1
    MARKER    'MARKER'                 'INTEND'
RHS
    RHS1      packing[0]  923
    RHS1      packing[1]  1020
    RHS1      packing[2]  755
    RHS1      packing[3]  711
    RHS1      packing[4]  602
    RHS1      packing[5]  797
    RHS1      packing[6]  1044
    RHS1      packing[7]  891
    RHS1      packing[8]  1074
    RHS1      packing[9]  840
    RHS1      packing[10]  604
    RHS1      packing[11]  900
    RHS1      packing[12]  704
    RHS1      packing[13]  599
    RHS1      packing[14]  632
    RHS1      packing[15]  834
    RHS1      packing[16]  696
    RHS1      packing[17]  666
    RHS1      packing[18]  633
    RHS1      packing[19]  714
    RHS1      packing[20]  723
    RHS1      packing[21]  810
    RHS1      packing[22]  827
    RHS1      packing[23]  674
    RHS1      packing[24]  712
    RHS1      packing[25]  815
    RHS1      packing[26]  819
    RHS1      packing[27]  519
    RHS1      packing[28]  883
    RHS1      packing[29]  873
    RHS1      packing[30]  855
    RHS1      packing[31]  704
    RHS1      packing[32]  1089
    RHS1      packing[33]  880
    RHS1      packing[34]  986
    RHS1      packing[35]  794
    RHS1      packing[36]  666
    RHS1      packing[37]  834
    RHS1      packing[38]  799
    RHS1      packing[39]  612
    RHS1      packing[40]  583
    RHS1      packing[41]  734
    RHS1      packing[42]  290
    RHS1      packing[43]  939
    RHS1      packing[44]  786
    RHS1      packing[45]  777
    RHS1      packing[46]  1048
    RHS1      packing[47]  618
    RHS1      packing[48]  662
    RHS1      packing[49]  869
    RHS1      R61       6
BOUNDS
 BV BND1      x[1]    
 BV BND1      x[2]    
 BV BND1      x[3]    
 BV BND1      x[4]    
 BV BND1      x[5]    
 BV BND1      x[6]    
 BV BND1      x[7]    
 BV BND1      x[8]    
 BV BND1      x[9]    
 BV BND1      x[10]   
 BV BND1      x[11]   
 BV BND1      x[12]   
 BV BND1      x[13]   
 BV BND1      x[14]   
 BV BND1      x[15]   
 BV BND1      x[16]   
 BV BND1      x[17]   
 BV BND1      x[18]   
 BV BND1      x[19]   
 BV BND1      x[20]   
ENDATA
